(set-info :smt-lib-version 2.6)
(set-logic UFNIRA)
(set-info :source |
Generated by: Geoff Sutcliffe
Generated on: 2026-03-11
Generator: TPTPWorld
Application: Benchmarking automated theorem provers
Time limit: 120.0

These benchmarks are translations from the TPTP Library (Thousands of
Problems for Theorem Provers), see http://www.cs.miami.edu/~tptp/

The TPTP is maintained by Geoff Sutcliffe, and he contributed this
selection of benchmarks to SMT-LIB.  They were exported from the
v9.2.1 realease of TPTP.
|)
(set-info :category "industrial")
(set-info :status unknown)
; SZS status Success
(declare-sort $$unsorted 0)
(declare-fun tptp.f (Int) Int)
(declare-fun tptp.iterate_f (Int Int) Int)
(assert (forall ((X Int)) (let ((_let_1 (to_real 2))) (let ((_let_2 (to_real X))) (let ((_let_3 (/ _let_2 _let_1))) (=> (= (to_int (- _let_2 (* (ite (>= _let_3 0.0) (to_int _let_3) (- (to_int (- _let_3)))) _let_1))) 1) (= (tptp.f X) (+ (* 3 X) 1))))))))
(assert (forall ((X Int)) (let ((_let_1 (to_real 2))) (let ((_let_2 (to_real X))) (let ((_let_3 (/ _let_2 _let_1))) (let ((_let_4 (ite (>= _let_3 0.0) (to_int _let_3) (- (to_int (- _let_3)))))) (=> (= (to_int (- _let_2 (* _let_4 _let_1))) 0) (= (tptp.f X) _let_4))))))))
(assert (forall ((I Int) (X Int)) (=> (= I 1) (= (tptp.iterate_f I X) (tptp.f X)))))
(assert (forall ((I Int) (X Int)) (=> (> I 1) (= (tptp.iterate_f I X) (tptp.iterate_f (- I 1) (tptp.f X))))))
(assert (not (forall ((X Int)) (=> (>= X 1) (exists ((I Int)) (= (tptp.iterate_f I X) 1))))))
(check-sat)
(exit)
